unsat
(forall ((A (_ BitVec 1))
         (B (_ BitVec 1))
         (C (_ BitVec 1))
         (D (_ BitVec 1))
         (E (_ BitVec 1))
         (F (_ BitVec 1))
         (G (_ BitVec 1))
         (H (_ BitVec 1))
         (I (_ BitVec 3))
         (J (_ BitVec 32))
         (K (_ BitVec 1))
         (L (_ BitVec 1))
         (M (_ BitVec 4))
         (N (_ BitVec 4))
         (O (_ BitVec 1))
         (P (_ BitVec 1))
         (Q (_ BitVec 1))
         (R (_ BitVec 1))
         (S (_ BitVec 1))
         (T (_ BitVec 1))
         (U (_ BitVec 1))
         (V (_ BitVec 1))
         (W (_ BitVec 32))
         (X (_ BitVec 2))
         (Y (_ BitVec 1))
         (Z (_ BitVec 2))
         (A1 (_ BitVec 2))
         (B1 (_ BitVec 5))
         (C1 (_ BitVec 1))
         (D1 (_ BitVec 1))
         (E1 (_ BitVec 1))
         (F1 (_ BitVec 22))
         (G1 (_ BitVec 1))
         (H1 (_ BitVec 4))
         (I1 (_ BitVec 1))
         (J1 (_ BitVec 32))
         (K1 (_ BitVec 1))
         (L1 (_ BitVec 1))
         (M1 (_ BitVec 1))
         (N1 (_ BitVec 1))
         (O1 (_ BitVec 36))
         (P1 (_ BitVec 1))
         (Q1 (_ BitVec 22))
         (R1 (_ BitVec 1))
         (S1 (_ BitVec 1))
         (T1 (_ BitVec 1))
         (U1 (_ BitVec 1))
         (V1 (_ BitVec 1))
         (W1 (_ BitVec 1))
         (X1 (_ BitVec 1))
         (Y1 (_ BitVec 32))
         (Z1 (_ BitVec 1))
         (A2 (_ BitVec 4))
         (B2 (_ BitVec 1))
         (C2 (_ BitVec 22))
         (D2 (_ BitVec 1)))
  (! (let ((a!1 (or (not (= ((_ extract 4 4) B1) #b0))
                    (not (= ((_ extract 0 0) B1) #b0))
                    (not (= ((_ extract 3 3) B1) #b0))
                    (not (= ((_ extract 1 1) B1) #b0))
                    (not (= ((_ extract 2 2) B1) #b0))))
           (a!4 (not (= O1
                        (concat #x0
                                ((_ extract 7 5) Y1)
                                ((_ extract 7 7) Y1)
                                ((_ extract 17 0) C2)
                                #b0010100000))))
           (a!5 (or (not (= K1 #b1)) (not (= ((_ extract 0 0) I) #b1))))
           (a!6 (or (not (= I #b011))
                    (ite (or (= O #b0) (= G1 #b0))
                         (= G1 #b1)
                         (= ((_ extract 4 1) B1) #x0))
                    (and (not (= Q #b0)) (not (= G1 #b1)))))
           (a!7 (or (= ((_ extract 4 1) B1) #x0)
                    (not (= Y #b0))
                    (not (= O #b1))
                    ((_ bit2bool 0) K1)
                    (not (= ((_ extract 31 4) O1) ((_ extract 27 0) O1)))))
           (a!8 (or (not (= T1 #b0))
                    (not (= ((_ extract 0 0) I) #b1))
                    (not (= H #b1))))
           (a!9 (or (not (= ((_ extract 1 1) I) #b1)) (not (= G #b1))))
           (a!10 (or (not (= T1 #b0))
                     (not (= H #b1))
                     (not (= ((_ extract 1 1) I) #b1))))
           (a!11 (or (not (= K1 #b1)) (not (= ((_ extract 1 1) I) #b1))))
           (a!12 (or (= ((_ extract 4 1) B1) #x0)
                     (not (= S1 #b0))
                     (not (= I1 #b0))
                     (= ((_ extract 0 0) I) #b1)
                     (not (= ((_ extract 2 2) N) #b1))))
           (a!13 (or (= ((_ extract 4 1) B1) #x0)
                     (not (= ((_ extract 4 4) B1) #b0))
                     (not (= S1 #b0))
                     (not (= I1 #b0))
                     (= ((_ extract 0 0) I) #b1)))
           (a!14 (or (not ((_ bit2bool 3) H1))
                     (not (= ((_ extract 1 1) I) #b1))))
           (a!15 (or (not (= D1 #b1))
                     (not (= I1 #b0))
                     (not (= ((_ extract 4 4) B1) #b0))))
           (a!16 (not (ite (= O #b1)
                           (= ((_ extract 1 1) H1) #b1)
                           (= ((_ extract 2 2) H1) #b1))))
           (a!17 (or (and (not (= O #b1)) (not (= B1 #b00000)))
                     (and (= B1 #b00010) (not (= G #b0)) (not (= H #b0)))
                     (= ((_ extract 4 1) B1) #x0)))
           (a!22 (or (= R1 #b1)
                     (= V1 #b1)
                     (= X #b00)
                     (not (= I1 #b1))
                     (not (= ((_ extract 1 1) I) #b1))))
           (a!23 (or (not (= V1 #b1))
                     (not (= T1 #b1))
                     (not (= ((_ extract 4 1) B1) #x0))))
           (a!24 (or (= R1 #b1)
                     (= V1 #b1)
                     (= X #b00)
                     (not (= I1 #b1))
                     (not (= ((_ extract 2 2) I) #b1))))
           (a!25 (or (not (= V1 #b1))
                     (not ((_ bit2bool 1) H1))
                     (not (= ((_ extract 2 2) I) #b1))))
           (a!26 (or (not (= T1 #b1))
                     (not (= B1 #b00000))
                     (not (= ((_ extract 1 1) I) #b1))))
           (a!27 (or (= O #b0)
                     (not (= ((_ extract 4 4) B1) #b0))
                     (not (bvule ((_ extract 3 0) B1) #x9))))
           (a!30 (not (ite (= O #b1)
                           (= ((_ extract 0 0) H1) #b1)
                           (= ((_ extract 1 1) H1) #b1))))
           (a!33 (or (= R1 #b1)
                     (= X #b10)
                     (not (= I1 #b1))
                     (= ((_ extract 2 2) A2) #b1)
                     (not (= ((_ extract 2 2) I) #b1))
                     (not (= ((_ extract 2 2) H1) #b1))))
           (a!34 (or (not (= T1 #b0)) (not (= ((_ extract 2 2) H1) #b1))))
           (a!35 (not (= J1
                         (concat ((_ extract 31 17) J1)
                                 ((_ extract 12 0) J1)
                                 A2))))
           (a!36 (or (not ((_ bit2bool 2) B1))
                     (not (= ((_ extract 0 0) H1) #b1))))
           (a!37 (or (not (= ((_ extract 0 0) H1) #b1))
                     (not (= ((_ extract 31 4) O1) ((_ extract 27 0) O1)))))
           (a!38 (not (= O1 (concat ((_ extract 31 0) O1) #x0))))
           (a!39 (ite (or (= O #b0) (not (= M1 #b0))) X #b11))
           (a!42 (or (= O #b0)
                     (not (= ((_ extract 4 4) B1) #b0))
                     (not (= M1 #b0))))
           (a!45 (or (not (= O #b1))
                     (not (= S1 #b0))
                     (not (= ((_ extract 1 1) H1) #b1))))
           (a!46 (or (not ((_ bit2bool 1) H1))
                     (not (= ((_ extract 2 2) B1) #b1))))
           (a!47 (or (not (= ((_ extract 0 0) H1) #b1))
                     (= ((_ extract 0 0) B1) #b1)))
           (a!48 (or (not ((_ bit2bool 1) H1))
                     (not (= ((_ extract 0 0) B1) #b1))))
           (a!49 (or (not (= ((_ extract 0 0) I) #b1))
                     (= ((_ extract 0 0) B1) #b1)
                     (not (= ((_ extract 2 2) H1) #b1))))
           (a!50 (or (not (= C1 #b0))
                     (not (= Y #b0))
                     (not ((_ bit2bool 2) H1))
                     (not ((_ bit2bool 3) B1))
                     (not ((_ bit2bool 0) G1))
                     (not (= ((_ extract 1 1) I) #b1))))
           (a!51 (or (not (= R1 #b1))
                     (not (= D1 #b1))
                     (not (= ((_ extract 3 3) B1) #b1))))
           (a!52 (or (not ((_ bit2bool 3) B1))
                     (not (= ((_ extract 1 1) H1) #b1))))
           (a!53 (not (= O1
                         (concat #x0
                                 ((_ extract 7 1) Y1)
                                 ((_ extract 6 6) Y1)
                                 ((_ extract 13 11) C2)
                                 ((_ extract 5 5) Y1)
                                 ((_ extract 9 7) C2)
                                 ((_ extract 4 4) Y1)
                                 ((_ extract 5 3) C2)
                                 ((_ extract 3 3) Y1)
                                 ((_ extract 1 0) C2)
                                 #b0
                                 ((_ extract 2 2) Y1)
                                 #b101
                                 ((_ extract 1 1) Y1)
                                 #b000
                                 ((_ extract 0 0) Y1))))))
     (let ((a!2 (= (ite (or (= O #b0) (not a!1))
                        ((_ extract 4 1) B1)
                        ((_ extract 4 1) (bvadd #b11111 B1)))
                   #x0))
           (a!18 (or (= X #b10)
                     (not (= C1 #b0))
                     (not (= ((_ extract 2 2) I) #b1))
                     a!16
                     (and (not (= I1 #b0)) a!17)))
           (a!19 (or (= X #b10)
                     (not (= P #b0))
                     (not (= ((_ extract 2 2) I) #b1))
                     a!16
                     (and (not (= I1 #b0)) a!17)))
           (a!20 (or (= K #b1)
                     (not (= S1 #b0))
                     (not (= ((_ extract 2 2) I) #b1))
                     a!16
                     (and (not (= I1 #b0)) a!17)))
           (a!28 (ite (or (= O #b0) (not a!1)) B1 (bvadd #b11111 B1)))
           (a!40 (or (not (= R1 #b1))
                     (not (= I #b010))
                     (not ((_ bit2bool 2) H1))
                     a!38
                     (not (= ((_ extract 2 2) B1) #b1))
                     (= a!39 #b10)))
           (a!41 (or (not ((_ bit2bool 2) H1))
                     (not ((_ bit2bool 3) B1))
                     (not (= ((_ extract 0 0) X) #b1))
                     (not (= I #b001))
                     a!38))
           (a!43 (or (not ((_ bit2bool 0) X))
                     (not ((_ bit2bool 1) B1))
                     (not (= I #b001))
                     a!38
                     (not (= ((_ extract 2 2) H1) #b1)))))
     (let ((a!3 (or (not ((_ bit2bool 2) H1))
                    (not (= ((_ extract 1 1) I) #b1))
                    a!2))
           (a!21 (or (not ((_ bit2bool 2) H1))
                     (= ((_ extract 0 0) I) #b1)
                     a!2
                     (not (= ((_ extract 31 4) O1) ((_ extract 27 0) O1)))))
           (a!29 (or (not (= M1 #b0))
                     (not ((_ bit2bool 1) H1))
                     (not (= (ite a!27 X #b11) #b10))
                     (not (= a!28 #b00001))))
           (a!31 (or (= X #b10)
                     (not (= K #b1))
                     ((_ bit2bool 2) M)
                     (not (= ((_ extract 0 0) I) #b1))
                     (not (= ((_ extract 8 8) J) #b1))
                     a!16
                     (not (= a!28 #b00000))))
           (a!32 (or (= X #b10)
                     ((_ bit2bool 2) M)
                     (not (= P #b0))
                     (not (= ((_ extract 0 0) I) #b1))
                     a!16
                     (not (= a!28 #b00000))))
           (a!44 (or (not ((_ bit2bool 1) H1))
                     ((_ bit2bool 3) J1)
                     (not (= I #b001))
                     (= ((_ extract 3 3) M) #b1)
                     (not (= ((_ extract 2 2) J1) #b1))
                     (not (= a!28 #b00001))))
           (a!54 (or (not ((_ bit2bool 2) H1))
                     (not (= ((_ extract 0 0) I) #b1))
                     a!2)))
     (let ((a!55 (and a!3
                      (= P1 #b0)
                      (or (not (= U #b1)) (= ((_ extract 0 0) I) #b1))
                      (or (= R1 #b1)
                          (= X #b00)
                          (not (= C1 #b0))
                          (not (= I1 #b1)))
                      (or (= O #b0) (= I #b000))
                      (not (= X #b01))
                      (or (= O #b0)
                          ((_ bit2bool 0) C1)
                          (not (= V1 #b1))
                          ((_ bit2bool 0) Y))
                      (or (not (= O #b1)) (= S1 #b1) ((_ bit2bool 7) O1))
                      (or (= B1 #b00000) (not (= U #b1)))
                      (or (= X #b00)
                          (not ((_ bit2bool 0) T1))
                          (not ((_ bit2bool 0) E1)))
                      (or (not (= V1 #b1)) (not (= H #b1)))
                      (or (not (= P #b0)) (not (= H #b1)))
                      (or (= I1 #b0) (= L #b1))
                      (or (= E1 #b1)
                          (not (= K #b1))
                          (not (= T1 #b1))
                          (not (= S1 #b0))
                          (not (= I1 #b0)))
                      (not (= ((_ extract 1 1) O1) #b1))
                      (or (= I #b000)
                          (not (= Y #b0))
                          (not ((_ bit2bool 3) H1))
                          a!4)
                      (or ((_ bit2bool 0) T1) (= ((_ extract 4 1) B1) #x0))
                      (or (= U #b1)
                          (= ((_ extract 1 1) X) #b1)
                          (not (= S1 #b0))
                          (not (= H #b1)))
                      (or (= ((_ extract 4 1) B1) #x0)
                          (= K #b1)
                          (= ((_ extract 1 1) X) #b1)
                          (not (= O #b1))
                          ((_ bit2bool 0) K1))
                      (or (= ((_ extract 4 1) B1) #x0)
                          (= K #b1)
                          (= X #b00)
                          (not (= O #b1))
                          ((_ bit2bool 0) K1)
                          ((_ bit2bool 0) X)
                          (not ((_ bit2bool 0) I1)))
                      (or (= ((_ extract 4 1) B1) #x0)
                          (not (= P #b0))
                          (= S1 #b1))
                      (or (= ((_ extract 4 1) B1) #x0)
                          (= K #b1)
                          (= A1 Z)
                          (not ((_ bit2bool 0) I1)))
                      (or (not (= U #b1)) (not (= D1 #b1)))
                      (or (= E1 #b1) (= S1 #b1) ((_ bit2bool 5) O1))
                      (or (not ((_ bit2bool 3) H1)) (not (= U #b1)))
                      (or (not (= G #b0)) (not (= I #b001)))
                      (or (not (= D1 #b1)) (not (= E1 #b1)))
                      (or (not (= Y #b0))
                          (not ((_ bit2bool 0) V))
                          ((_ bit2bool 0) G1)
                          (= ((_ extract 2 2) I) #b1))
                      (or (= G #b0) (= ((_ extract 0 0) I) #b1))
                      a!5
                      (or (= B1 #b00000)
                          (not ((_ bit2bool 2) H1))
                          (not ((_ bit2bool 0) E1)))
                      (or (not (= H #b1)) (= Y #b1))
                      a!6
                      a!7
                      (or (not ((_ bit2bool 0) T1))
                          (not (= P #b0))
                          (not (= V1 #b1)))
                      (or (not (= Q #b1)) (= ((_ extract 0 0) I) #b1))
                      (or (= ((_ extract 4 1) B1) #x0)
                          (not (= K #b1))
                          (not (= P #b0))
                          (= A1 Z)
                          (not (= I1 #b0)))
                      (or (not ((_ bit2bool 34) O1)) (= S1 #b1))
                      (or (= ((_ extract 4 1) B1) #x0)
                          (= ((_ extract 1 1) X) #b1)
                          (not (= I1 #b0)))
                      (or (bvule ((_ extract 3 0) B1) #x9) (not (= S1 #b0)))
                      (or (bvule ((_ extract 3 0) B1) #x9)
                          (not (= O #b1))
                          ((_ bit2bool 0) K1)
                          (= Y #b1))
                      (or (not (= T1 #b0)) ((_ bit2bool 0) S1) (not (= H #b1)))
                      a!8
                      (or (not (= I #b010)) (= G1 #b1))
                      a!9
                      a!10
                      (or ((_ bit2bool 0) G1) (not (= I #b001)))
                      (or (= O #b0)
                          (not (= K #b1))
                          (not (= T1 #b1))
                          ((_ bit2bool 0) K1)
                          (not (= I1 #b0)))
                      (or (not ((_ bit2bool 5) O1))
                          (bvule ((_ extract 3 0) B1) #x9))
                      (or (not (= D1 #b1)) (bvule ((_ extract 3 0) B1) #x9))
                      (or (= O #b0)
                          (= ((_ extract 4 1) B1) #x0)
                          ((_ bit2bool 0) Y)
                          ((_ bit2bool 0) K1)
                          (not (= I1 #b0)))
                      (or (not (= K1 #b1)) (= G1 #b1))
                      (or (= O #b0)
                          (= ((_ extract 4 1) B1) #x0)
                          (= X #b10)
                          ((_ bit2bool 0) K1)
                          (not (= I1 #b0)))
                      (or (not ((_ bit2bool 4) B1)) (not (= I1 #b0)) (= X #b10))
                      (or (not (= B1 #b00001))
                          (not ((_ bit2bool 2) H1))
                          (not ((_ bit2bool 5) O1)))
                      (or (not ((_ bit2bool 0) V))
                          ((_ bit2bool 0) G1)
                          (not (= T1 #b0)))
                      (or (= O #b0) ((_ bit2bool 0) K1) (not (= H #b1)))
                      a!11
                      (or (= ((_ extract 4 1) B1) #x0)
                          (= X #b10)
                          (not (= S1 #b0))
                          (not (= I1 #b0))
                          (not (= I #b001)))
                      a!12
                      a!13
                      (or (= ((_ extract 4 1) B1) #x0)
                          (not (= O #b1))
                          (not (= P #b0))
                          ((_ bit2bool 0) K1))
                      (or (not ((_ bit2bool 4) B1)) (not (= K #b1)) (= A1 Z))
                      (or (bvule ((_ extract 3 0) B1) #x9)
                          (not (= K #b1))
                          (not (= P #b0))
                          (= A1 Z))
                      (or (= ((_ extract 4 1) B1) #x0)
                          (not (= I1 #b1))
                          (not (= D1 #b0)))
                      (or (= ((_ extract 4 1) B1) #x0)
                          (= ((_ extract 1 1) X) #b1)
                          (= R1 #b0))
                      (or (= ((_ extract 4 1) B1) #x0)
                          (not (= C1 #b0))
                          (not (= I1 #b1))
                          (not (= O #b1))
                          ((_ bit2bool 0) K1))
                      (or ((_ bit2bool 0) G1)
                          (not (= K #b1))
                          (not (= S1 #b0))
                          (= V #b0))
                      a!14
                      (or (= O #b0)
                          (= K #b1)
                          ((_ bit2bool 0) C1)
                          (not (= V1 #b1))
                          (not (= I1 #b0)))
                      a!15
                      (or (= K #b1) (not (= S1 #b0)) (not (= D1 #b1)) a!2)
                      (or (not (= T1 #b1))
                          (not (= S1 #b0))
                          (not (= I1 #b0))
                          (= ((_ extract 0 0) I) #b1)
                          (not ((_ bit2bool 2) A2)))
                      (or (= O #b0)
                          (not (= V1 #b1))
                          ((_ bit2bool 0) Y)
                          (= ((_ extract 12 12) J) #b0)
                          (= ((_ extract 8 8) J) #b1)
                          (= K #b0))
                      (or (= O #b0) (not (= V1 #b1)) (not (= P #b0)))
                      (or (= I #b000)
                          (not ((_ bit2bool 2) H1))
                          (not ((_ bit2bool 5) O1)))
                      (or (not (= B1 #b00001))
                          (not (= T1 #b1))
                          (not (= S1 #b0)))
                      (or (= O #b0)
                          (not (= C1 #b0))
                          (not (= T1 #b1))
                          ((_ bit2bool 0) K1)
                          (= ((_ extract 2 2) B1) #b1))
                      (or ((_ bit2bool 0) C1)
                          (not ((_ bit2bool 0) H1))
                          (not ((_ bit2bool 2) H1)))
                      a!18
                      a!19
                      a!20
                      (or (not (= R1 #b1))
                          (= M1 #b0)
                          (= X #b10)
                          (not (= S1 #b0))
                          (= T1 #b0)
                          (not (= D1 #b1)))
                      (or (= R1 #b1) (= K #b1) (= X #b00) (not (= I1 #b1)))
                      (or (= I #b000)
                          (= R1 #b1)
                          (= X #b00)
                          (= I1 #b0)
                          (not ((_ bit2bool 3) H1)))
                      a!21
                      a!22
                      a!23
                      (or (= R1 #b1)
                          (= X #b00)
                          (not (= I1 #b1))
                          (not (= P #b0)))
                      (or (= R1 #b1) (= X #b00) (not (= D1 #b1)))
                      (or (= O #b0)
                          (not (= T1 #b1))
                          ((_ bit2bool 0) K1)
                          (= ((_ extract 0 0) B1) #b1))
                      (or (not (= T1 #b1))
                          (not (= D1 #b1))
                          (not (= B1 #b00000)))
                      (or (not (= T1 #b1))
                          (not (= B1 #b00000))
                          (= ((_ extract 0 0) I) #b1))
                      a!24
                      (or (not ((_ bit2bool 1) H1))
                          (not (= S1 #b0))
                          (= I #b000))
                      a!25
                      (or (= X #b00) (not (= U #b1)))
                      a!26
                      (or (not (= K1 #b1))
                          (not ((_ bit2bool 2) H1))
                          (not (= S1 #b0)))
                      (or (= G1 #b1)
                          (not ((_ bit2bool 0) V))
                          (= ((_ extract 0 0) I) #b1))
                      (or (not (= D1 #b1)) (= ((_ extract 4 4) B1) #b0))
                      (or (= ((_ extract 1 1) X) #b1) (not ((_ bit2bool 4) B1)))
                      (or (not ((_ bit2bool 32) O1)) (not (= S1 #b0)))
                      (or (= ((_ extract 4 1) B1) #x0)
                          (not (= C1 #b0))
                          (not ((_ bit2bool 0) H1))
                          (not ((_ bit2bool 32) O1)))
                      (or (= O #b0) (not (= B1 #b00001)) ((_ bit2bool 0) K1))
                      a!29
                      (or (not (= M1 #b0))
                          ((_ bit2bool 0) X)
                          (not (= I #b001))
                          a!30
                          (not (= a!28 #b00001)))
                      a!31
                      a!32
                      a!33
                      a!34
                      (or (not (= I1 #b1)) (not (= H #b1)))
                      (or (not ((_ bit2bool 3) H1)) (= ((_ extract 0 0) I) #b1))
                      (or (not ((_ bit2bool 1) H1)) (not ((_ bit2bool 2) H1)))
                      (or (not ((_ bit2bool 3) H1))
                          ((_ bit2bool 7) J1)
                          (not (= D2 #b0))
                          a!35)
                      a!36
                      (or (not ((_ bit2bool 3) H1))
                          (not (= P #b0))
                          (= A1 Z)
                          ((_ bit2bool 0) G1))
                      (or (= ((_ extract 4 1) B1) #x0)
                          (not ((_ bit2bool 2) H1))
                          (not (= D1 #b1)))
                      (or (not (= I1 #b1))
                          (not ((_ bit2bool 3) H1))
                          (not (= T1 #b1)))
                      (or (not ((_ bit2bool 2) H1)) (not (= I1 #b0)))
                      (or (not ((_ bit2bool 3) H1)) (not (= I1 #b0)))
                      a!37
                      (or (not ((_ bit2bool 1) H1)) a!38)
                      a!40
                      a!41
                      (or (not (= R1 #b1))
                          (not ((_ bit2bool 1) B1))
                          (not (= I #b010))
                          (not ((_ bit2bool 2) H1))
                          a!38
                          (= (ite a!42 X #b11) #b10))
                      a!43
                      (or (not ((_ bit2bool 0) H1))
                          (= ((_ extract 1 1) B1) #b1))
                      (or (= M1 #b0)
                          (= X #b00)
                          (= X #b10)
                          (not (= C1 #b0))
                          (not ((_ bit2bool 1) H1))
                          ((_ bit2bool 3) J1)
                          (not (= I #b001))
                          (not (= a!28 #b00001)))
                      a!44
                      (or (= R1 #b1)
                          (not (= I1 #b1))
                          ((_ bit2bool 2) A2)
                          (= ((_ extract 8 8) J) #b1))
                      (or (= I #b000)
                          (= X #b10)
                          (not ((_ bit2bool 1) H1))
                          (= ((_ extract 0 0) B1) #b1)
                          (= ((_ extract 12 12) J1) #b1))
                      (or (= X #b00)
                          (= X #b10)
                          (not ((_ bit2bool 1) H1))
                          ((_ bit2bool 11) J1)
                          (= ((_ extract 0 0) B1) #b1))
                      (or (not ((_ bit2bool 1) H1)) (not (= B1 #b00000)))
                      a!45
                      a!46
                      a!47
                      a!48
                      a!49
                      a!50
                      (or (= G1 #b1)
                          (not ((_ bit2bool 0) B1))
                          (not ((_ bit2bool 3) B1))
                          (not (= D1 #b1)))
                      (or (= G1 #b1)
                          (not ((_ bit2bool 3) B1))
                          (not (= D1 #b1))
                          (not ((_ bit2bool 0) a!28)))
                      (or (not (= C1 #b0))
                          (not ((_ bit2bool 1) I))
                          (not (= Y #b0))
                          (not ((_ bit2bool 1) B1))
                          (not ((_ bit2bool 2) H1))
                          (not (= G1 #b1)))
                      (or (not (= C1 #b0))
                          (not ((_ bit2bool 1) B1))
                          (not ((_ bit2bool 2) H1))
                          ((_ bit2bool 2) B1)
                          ((_ bit2bool 0) I)
                          (= (ite a!42 X #b11) #b10))
                      (or (= X #b00)
                          (not ((_ bit2bool 2) H1))
                          (not (= B1 #b00111)))
                      (or (not ((_ bit2bool 2) H1)) (not (= B1 #b00101)))
                      a!51
                      a!52
                      (or (not ((_ bit2bool 3) H1)) (not (= S1 #b0)))
                      (or (not ((_ bit2bool 3) H1)) a!53)
                      (or (not ((_ bit2bool 0) H1)) (not (= I1 #b0)))
                      (or (not ((_ bit2bool 1) H1)) (not (= I1 #b0)))
                      a!54
                      (or (not (= C1 #b0))
                          (not (= K #b1))
                          (not ((_ bit2bool 2) H1))
                          ((_ bit2bool 0) I)
                          a!2)
                      (or (not (= C1 #b0))
                          (not (= Y #b0))
                          (not ((_ bit2bool 2) H1))
                          ((_ bit2bool 0) I)
                          a!2)
                      (or (= L #b1) (= X #b00)))))
       (= (INV!slice!1 A
                       B
                       C
                       D
                       E
                       F
                       G
                       H
                       I
                       J
                       K
                       L
                       M
                       N
                       O
                       P
                       Q
                       R
                       S
                       T
                       U
                       V
                       W
                       X
                       Y
                       Z
                       A1
                       B1
                       C1
                       D1
                       E1
                       F1
                       G1
                       H1
                       I1
                       J1
                       K1
                       L1
                       M1
                       N1
                       O1
                       P1
                       Q1
                       R1
                       S1
                       T1
                       U1
                       V1
                       W1
                       X1
                       Y1
                       Z1
                       A2
                       B2
                       C2
                       D2)
          a!55)))))
     :weight 0))
